p cnf 48 90
-1 -2 0
-3 -4 0
-5 -6 0
-7 -8 0
1 2 0
3 4 0
5 6 0
7 8 0
1 17 0
-18 0
3 19 0
-17 19 0
3 -18 0
5 21 0
-19 21 0
5 -20 0
7 -22 0
3 -17 20 0
-18 20 0
5 -19 22 0
-20 22 0
-1 9 0
-10 0
-3 11 0
-9 11 0
-3 -10 0
-5 13 0
-11 13 0
-5 -12 0
-7 -14 0
-3 -9 12 0
-10 12 0
-5 -11 14 0
-12 14 0
1 3 -25 0
-1 3 25 0
1 -3 25 0
-1 -3 -25 0
1 5 -26 0
-1 5 26 0
1 -5 26 0
-1 -5 -26 0
1 7 -27 0
-1 7 27 0
1 -7 27 0
-1 -7 -27 0
3 5 -28 0
-3 5 28 0
3 -5 28 0
-3 -5 -28 0
3 7 -29 0
-3 7 29 0
3 -7 29 0
-3 -7 -29 0
5 7 -30 0
-5 7 30 0
5 -7 30 0
-5 -7 -30 0
-25 31 0
-32 0
-33 0
-26 34 0
-31 34 0
-26 -33 0
-27 37 0
-34 37 0
-27 -36 0
-28 40 0
-37 40 0
-28 -39 0
-29 43 0
-40 43 0
-29 -42 0
-30 -45 0
-26 -31 35 0
-32 35 0
-26 -32 36 0
-33 36 0
-27 -34 38 0
-35 38 0
-27 -35 39 0
-36 39 0
-28 -37 41 0
-38 41 0
-28 -38 42 0
-39 42 0
-29 -40 44 0
-41 44 0
-29 -41 45 0
-42 45 0
